problems/csplib-prob056/sonet-models/noch/O2/lingeling/model_4_1-s2ring14-solution000001.solution
language Essence 1.3

letting network be mset({}, {1, 2, 6, 7, 8}, {3, 4, 5, 6, 7}, {3, 4, 5, 6, 7}, {3, 4, 5, 6, 7}, {3, 5, 7, 9, 10})
$ Here is a simple "visualisation" for the value above.
$ 
$  1  2  6  7  8
$  3  4  5  6  7
$  3  4  5  6  7
$  3  4  5  6  7
$  3  5  7  9 10

